Version identifier: 12.10.0.0 | 2019-11-26 | 843d4de
CPXPARAM_Read_DataCheck                          1
CPXPARAM_RandomSeed                              201903125
CPXPARAM_TimeLimit                               7200
Parallel mode: deterministic, using up to 8 threads for concurrent optimization:
 * Starting dual Simplex on 1 thread...
 * Starting Barrier on 6 threads...
 * Starting primal Simplex on 1 thread...
Tried aggregator 1 time.
No LP presolve or aggregator reductions.
Presolve time = 0.00 sec. (2.48 ticks)

Iteration log . . .
Iteration:     1   Dual objective     =           963.000000
Iteration:    96   Dual objective     =           963.000000
Perturbation started.
Iteration:   101   Dual objective     =           963.000000
Iteration:   207   Dual objective     =           963.012101
Iteration:   376   Dual objective     =           963.012226
Iteration:   545   Dual objective     =           963.012228
Iteration:   722   Dual objective     =           963.012230
Iteration:   904   Dual objective     =           963.012231
Removing perturbation.

Dual simplex solved model.

